(set-logic ALL)
(declare-fun var0 () String)
(assert (str.in_re var0 (re.++ (re.+ (re.+ (str.to_re "000"))) (re.++ (re.+ (re.union (str.to_re "111") (str.to_re "22"))) (re.++ (re.+ (re.* (str.to_re "3"))) (re.++ (re.* (re.union (str.to_re "444") (str.to_re "55"))) (re.++ (re.union (re.+ (str.to_re "6")) (re.+ (str.to_re "77"))) (re.++ (re.union (re.+ (str.to_re "88")) (re.+ (str.to_re "99"))) (re.++ (re.+ (re.+ (str.to_re "aa"))) (re.++ (re.union (re.* (str.to_re "bb")) (re.* (str.to_re "c"))) (re.++ (re.union (re.* (str.to_re "d")) (re.* (str.to_re "eee"))) (re.++ (re.+ (re.+ (str.to_re "fff"))) (re.++ (re.* (re.+ (str.to_re "g"))) (re.++ (re.union (re.union (str.to_re "hhh") (str.to_re "ii")) (re.union (str.to_re "jj") (str.to_re "kk"))) (re.union (re.* (str.to_re "ll")) (re.* (str.to_re "mmm")))))))))))))))))
(check-sat)